p cnf 135 458
-2 -3 -4 0
2 3 -4 0
-2 3 4 0
2 -3 4 0
-6 -4 0
-6 -5 0
4 5 6 0
7 -1 0
7 -6 0
1 6 -7 0
-9 -1 0
-9 -8 0
1 8 9 0
11 9 0
11 -10 0
-9 10 -11 0
-12 7 0
-12 -11 0
-7 11 12 0
13 -14 -15 0
-13 14 -15 0
13 14 15 0
-13 -14 15 0
-2 -3 -16 0
2 3 -16 0
-2 3 16 0
2 -3 16 0
17 15 0
17 -16 0
-15 16 -17 0
-12 -17 -18 0
12 17 -18 0
-12 17 18 0
12 -17 18 0
-19 6 0
-19 1 0
-6 -1 19 0
21 8 0
21 20 0
-8 -20 -21 0
22 19 0
22 -21 0
-19 21 -22 0
-24 22 0
-24 23 0
-22 -23 24 0
8 24 -25 0
-8 -24 -25 0
8 -24 25 0
-8 24 25 0
27 -25 0
27 -26 0
25 26 -27 0
18 27 -28 0
-18 -27 -28 0
18 -27 28 0
-18 27 28 0
-29 26 0
-29 -10 0
-26 10 29 0
-30 29 0
-30 -23 0
-29 23 30 0
31 -8 0
31 1 0
8 -1 -31 0
32 -26 0
32 -31 0
26 31 -32 0
32 -19 -33 0
-32 19 -33 0
32 19 33 0
-32 -19 33 0
-34 17 0
-34 33 0
-17 -33 34 0
-32 23 -35 0
32 -23 -35 0
-32 -23 35 0
32 23 35 0
-36 -35 0
-36 35 0
-38 -36 0
-38 37 0
36 -37 38 0
39 34 0
39 38 0
-34 -38 -39 0
-40 30 0
-40 -39 0
-30 39 40 0
41 28 0
41 40 0
-28 -40 -41 0
42 31 -43 0
-42 -31 -43 0
42 -31 43 0
-42 31 43 0
44 -43 0
44 -12 0
43 12 -44 0
-45 -20 0
-45 29 0
20 -29 45 0
44 -45 -46 0
-44 45 -46 0
44 45 46 0
-44 -45 46 0
-47 32 0
-47 43 0
-32 -43 47 0
48 -13 0
48 20 0
13 -20 -48 0
-49 -42 0
-49 48 0
42 -48 49 0
-21 49 -50 0
21 -49 -50 0
-21 -49 50 0
21 49 50 0
47 50 -51 0
-47 -50 -51 0
47 -50 51 0
-47 50 51 0
-52 -46 0
-52 -51 0
46 51 52 0
-13 -48 -53 0
13 48 -53 0
-13 48 53 0
13 -48 53 0
54 -29 0
54 53 0
29 -53 -54 0
-55 -20 0
-55 -37 0
20 37 55 0
-56 49 0
-56 -55 0
-49 55 56 0
57 -22 0
57 -56 0
22 56 -57 0
13 16 -58 0
-13 -16 -58 0
13 -16 58 0
-13 16 58 0
-59 -57 0
-59 -58 0
57 58 59 0
13 60 0
-13 60 0
-60 -6 -61 0
60 6 -61 0
-60 6 61 0
60 -6 61 0
62 -61 0
62 35 0
61 -35 -62 0
63 3 0
63 -48 0
-3 48 -63 0
-64 -63 0
-64 -8 0
63 8 64 0
65 -62 0
65 64 0
62 -64 -65 0
-7 3 -66 0
7 -3 -66 0
-7 -3 66 0
7 3 66 0
65 -66 -67 0
-65 66 -67 0
65 66 67 0
-65 -66 67 0
-20 -68 -69 0
20 68 -69 0
-20 68 69 0
20 -68 69 0
49 10 -70 0
-49 -10 -70 0
49 -10 70 0
-49 10 70 0
-69 -70 -71 0
69 70 -71 0
-69 70 71 0
69 -70 71 0
-72 48 0
-72 -61 0
-48 61 72 0
73 43 0
73 6 0
-43 -6 -73 0
-74 -72 0
-74 73 0
72 -73 74 0
-75 -71 0
-75 74 0
71 -74 75 0
-76 -67 0
-76 -75 0
67 75 76 0
-59 76 -77 0
59 -76 -77 0
-59 -76 77 0
59 76 77 0
-54 77 -78 0
54 -77 -78 0
-54 -77 78 0
54 77 78 0
-79 31 0
-79 26 0
-31 -26 79 0
78 -79 -80 0
-78 79 -80 0
78 79 80 0
-78 -79 80 0
81 52 0
81 80 0
-52 -80 -81 0
-82 -42 0
-82 -9 0
42 9 82 0
23 -82 -83 0
-23 82 -83 0
23 82 83 0
-23 -82 83 0
-84 -83 0
-84 -35 0
83 35 84 0
85 69 0
85 -23 0
-69 23 -85 0
-86 -26 0
-86 -85 0
26 85 86 0
87 84 0
87 -86 0
-84 86 -87 0
88 -82 0
88 -13 0
82 13 -88 0
-89 -87 0
-89 88 0
87 -88 89 0
-90 -29 0
-90 1 0
29 -1 90 0
89 -90 -91 0
-89 90 -91 0
89 90 91 0
-89 -90 91 0
92 -19 0
92 23 0
19 -23 -92 0
-93 4 0
-93 -7 0
-4 7 93 0
13 37 -94 0
-13 -37 -94 0
13 -37 94 0
-13 37 94 0
96 -95 0
96 22 0
95 -22 -96 0
-97 -94 0
-97 96 0
94 -96 97 0
98 -93 0
98 -97 0
93 97 -98 0
92 -98 -99 0
-92 98 -99 0
92 98 99 0
-92 -98 99 0
100 91 0
100 99 0
-91 -99 -100 0
-81 -100 -101 0
81 100 -101 0
-81 100 101 0
81 -100 101 0
-14 -2 -102 0
14 2 -102 0
-14 2 102 0
14 -2 102 0
-103 -82 0
-103 102 0
82 -102 103 0
-48 43 -104 0
48 -43 -104 0
-48 -43 104 0
48 43 104 0
105 -104 0
105 -1 0
104 1 -105 0
-106 -103 0
-106 -105 0
103 105 106 0
-10 -20 -107 0
10 20 -107 0
-10 20 107 0
10 -20 107 0
-106 -107 -108 0
106 107 -108 0
-106 107 108 0
106 -107 108 0
6 31 -109 0
-6 -31 -109 0
6 -31 109 0
-6 31 109 0
-49 -60 -110 0
49 60 -110 0
-49 60 110 0
49 -60 110 0
-109 -110 -111 0
109 110 -111 0
-109 110 111 0
109 -110 111 0
-112 37 0
-112 -12 0
-37 12 112 0
-33 -112 -113 0
33 112 -113 0
-33 112 113 0
33 -112 113 0
114 14 0
114 2 0
-14 -2 -114 0
115 113 0
115 -114 0
-113 114 -115 0
116 111 0
116 -115 0
-111 115 -116 0
-108 -116 -117 0
108 116 -117 0
-108 116 117 0
108 -116 117 0
-118 -9 0
-118 -5 0
9 5 118 0
119 -118 0
119 -35 0
118 35 -119 0
9 31 -120 0
-9 -31 -120 0
9 -31 120 0
-9 31 120 0
31 -121 0
-31 -121 0
-122 35 -123 0
122 -35 -123 0
-122 -35 123 0
122 35 123 0
-124 -121 0
-124 -123 0
121 123 124 0
125 -120 0
125 -124 0
120 124 -125 0
-8 -21 -126 0
8 21 -126 0
-8 21 126 0
8 -21 126 0
-127 125 0
-127 -126 0
-125 126 127 0
19 5 -128 0
-19 -5 -128 0
19 -5 128 0
-19 5 128 0
-129 1 0
-129 128 0
-1 -128 129 0
-48 129 -130 0
48 -129 -130 0
-48 -129 130 0
48 129 130 0
131 -127 0
131 -130 0
127 130 -131 0
-132 119 0
-132 -131 0
-119 131 132 0
133 -117 0
133 -132 0
117 132 -133 0
-134 -101 0
-134 -133 0
101 133 134 0
41 134 -135 0
-41 -134 -135 0
41 -134 135 0
-41 134 135 0
72 15 -120 86 -125 64 0
72 -23 -55 31 76 -118 0
104 59 -111 45 0
-67 58 -131 -28 -79 -128 0
-79 126 -11 -104 102 -17 0
76 -66 -19 9 0
-20 -110 19 -86 -27 66 0
58 12 -76 130 0
81 77 -27 -135 0
-96 -127 60 69 0
-7 -64 -49 -103 126 0
48 -111 76 -8 119 -97 0
17 49 -80 -32 0
97 117 -133 -39 23 16 0
-76 32 -95 96 25 0
98 72 -76 -3 -78 0
54 129 72 41 -76 -25 0
104 70 86 0
-135 96 97 92 0
96 -45 0
-19 -35 42 0
59 -27 -74 -83 0
-134 81 -71 74 0
113 2 -42 130 -44 0
73 76 -58 61 -83 0
-24 -38 69 -99 0
81 -10 4 0
-49 -114 56 70 0
-131 -90 69 30 -89 0
8 -111 0
-59 -47 46 -82 0
15 -66 107 8 0
-5 -6 -9 106 0
74 -8 30 0
-6 -135 -96 113 52 55 0
58 13 -97 0
118 72 80 36 -76 74 0
-14 -51 0
-90 37 13 -11 -4 -44 0
109 -19 126 0
-82 -53 -84 0
-134 57 -38 -39 49 -76 0
125 57 -55 50 -44 -129 0
33 56 0
-58 -42 -45 107 -104 0
-21 -67 0
126 -42 0
-23 72 0
61 -59 131 50 74 0
127 -129 -35 0
-10 14 22 17 12 0
4 -82 -128 -84 0
88 -25 0
129 3 94 93 89 120 0
29 22 -100 106 -134 0
113 96 0
-13 -88 0
62 -33 -93 65 42 -32 0
-112 9 41 107 0
12 89 61 -59 -34 0
135 0
